h 5 -1 0
h 8 -10 -3 0
h 6 3 -2 0
h 6 -4 0
h 1 2 0
h -5 4 0
h -6 -2 32 0
h 10 -2 0
h 65 -20 0
h 70 21 0
1 -70 0
h 31 -65 71 0
1217448871 -71 0
964767713 -72 0
h -8 -21 0
h 2 -21 0
h 20 -21 0
h -32 -21 0
h -3 68 2 -20 12 0
1 -73 0
2149244213 -74 0
h -7 18 0
